%mem=8GB
%nproc=8
# HF/6-31G* scf=tight iop(6/33=2) pop=chelpg

Title Card Required

1 1
 C
 H                  1              B1
 H                  1              B2    2              A1
 H                  1              B3    2              A2    3              D1
 C                  1              B4    4              A3    3              D2
 O                  5              B5    1              A4    4              D3
 N                  5              B6    1              A5    6              D4
 H                  7              B7    5              A6    1              D5
 C                  7              B8    5              A7    1              D6
 H                  9              B9    7              A8    5              D7
 C                  9             B10    7              A9    5              D8
 H                 11             B11    9             A10    7              D9
 H                 11             B12    9             A11    7             D10
 C                 11             B13    9             A12    7             D11
 H                 14             B14   11             A13    9             D12
 H                 14             B15   11             A14    9             D13
 C                 14             B16   11             A15    9             D14
 H                 17             B17   14             A16   11             D15
 C                 17             B18   14             A17   11             D16
 H                 19             B19   17             A18   14             D17
 H                 19             B20   17             A19   14             D18
 N                 19             B21   17             A20   14             D19
 H                 22             B22   19             A21   17             D20
 H                 22             B23   19             A22   17             D21
 H                 22             B24   19             A23   17             D22
 O                 17             B25   14             A24   11             D23
 C                 26             B26   17             A25   14             D24
 H                 27             B27   26             A26   17             D25
 H                 27             B28   26             A27   17             D26
 H                 27             B29   26             A28   17             D27
 C                  9             B30    7             A29    5             D28
 O                 31             B31    9             A30    7             D29
 N                 31             B32    9             A31    7             D30
 H                 33             B33   31             A32    9             D31
 C                 33             B34   31             A33    9             D32
 H                 35             B35   33             A34   31             D33
 H                 35             B36   33             A35   31             D34
 H                 35             B37   33             A36   31             D35

   B1             1.08481982
   B2             1.08541384
   B3             1.07893704
   B4             1.51134812
   B5             1.20014549
   B6             1.36669971
   B7             0.99645679
   B8             1.45039377
   B9             1.08386286
   B10            1.53581757
   B11            1.08103234
   B12            1.08510963
   B13            1.53268980
   B14            1.08266434
   B15            1.08631103
   B16            1.53445616
   B17            1.09069252
   B18            1.52579825
   B19            1.07919177
   B20            1.07989186
   B21            1.50775633
   B22            1.00987147
   B23            1.00939347
   B24            1.01470519
   B25            1.40316281
   B26            1.41562564
   B27            1.08510038
   B28            1.07908786
   B29            1.08072236
   B30            1.53228031
   B31            1.20445732
   B32            1.34085854
   B33            0.99405887
   B34            1.45178336
   B35            1.08359146
   B36            1.07984344
   B37            1.08083528
   A1           107.92456100
   A2           109.90800938
   A3           109.43732042
   A4           123.28078098
   A5           115.31071879
   A6           118.26551743
   A7           120.17338659
   A8           105.94396175
   A9           112.79929115
   A10          106.94525837
   A11          109.66576265
   A12          112.76832559
   A13          108.12586017
   A14          110.68613880
   A15          114.13519068
   A16          110.25741920
   A17          109.31941908
   A18          112.98058627
   A19          110.61323943
   A20          108.43961452
   A21          111.93353488
   A22          112.79850359
   A23          107.07534860
   A24          115.08289590
   A25          118.06981527
   A26          110.55572149
   A27          106.43491854
   A28          111.39371819
   A29          110.97113720
   A30          120.73902759
   A31          116.07425883
   A32          118.41542244
   A33          121.62722842
   A34          111.57647261
   A35          109.81710156
   A36          108.57061214
   D1          -119.77253803
   D2          -121.15363572
   D3            -0.96997702
   D4          -178.96383152
   D5           -15.47461728
   D6          -175.20337421
   D7           -44.21449922
   D8            74.06071019
   D9           -37.43601186
   D10           79.05271111
   D11         -158.50154812
   D12          -68.98164689
   D13           47.91124238
   D14          168.69837056
   D15           27.51836164
   D16          147.54554463
   D17          -70.70012867
   D18           53.10689404
   D19          169.19328006
   D20           71.43858323
   D21         -166.72089595
   D22          -46.15770042
   D23          -96.63932728
   D24           64.00118564
   D25           54.89257652
   D26          173.57941667
   D27          -67.38617479
   D28         -159.47808085
   D29         -143.98310381
   D30           37.11845132
   D31            5.98419231
   D32          173.95112520
   D33          -70.53816881
   D34           49.95743072
   D35          169.16692877

